************************************************************************
file with basedata            : md349_.bas
initial value random generator: 26785
************************************************************************
projects                      :  1
jobs (incl. supersource/sink ):  22
horizon                       :  156
RESOURCES
  - renewable                 :  2   R
  - nonrenewable              :  2   N
  - doubly constrained        :  0   D
************************************************************************
PROJECT INFORMATION:
pronr.  #jobs rel.date duedate tardcost  MPM-Time
    1     20      0       26       17       26
************************************************************************
PRECEDENCE RELATIONS:
jobnr.    #modes  #successors   successors
   1        1          3           2   3   4
   2        3          3           6   7  10
   3        3          2           5   6
   4        3          2          18  20
   5        3          2          13  18
   6        3          2           8  16
   7        3          3          13  14  21
   8        3          3           9  12  13
   9        3          1          21
  10        3          3          11  14  15
  11        3          3          16  17  20
  12        3          3          14  15  17
  13        3          1          17
  14        3          1          18
  15        3          1          20
  16        3          2          19  21
  17        3          1          19
  18        3          1          19
  19        3          1          22
  20        3          1          22
  21        3          1          22
  22        1          0        
************************************************************************
REQUESTS/DURATIONS:
jobnr. mode duration  R 1  R 2  N 1  N 2
------------------------------------------------------------------------
  1      1     0       0    0    0    0
  2      1     4       6    6    0    8
         2     8       5    6    5    0
         3    10       5    1    1    0
  3      1     1       7    9    0    9
         2     5       6    9    0    6
         3     6       6    8    3    0
  4      1     1       6   10    0    8
         2     2       5    6    7    0
         3     8       5    4    6    0
  5      1     3       2   10    0    9
         2     4       2    8    5    0
         3     4       2    9    0    7
  6      1     6      10    7    7    0
         2     8       9    4    0    5
         3     8       9    3    0    7
  7      1     3       6    5    0    5
         2     4       6    5    3    0
         3     6       5    2    0    4
  8      1     4       4    7    0    4
         2     5       3    7    0    3
         3     9       2    4    6    0
  9      1     3       3    9    0    8
         2     5       3    4    6    0
         3     8       2    3    6    0
 10      1     6       7    8    7    0
         2     7       7    5    6    0
         3    10       5    5    6    0
 11      1     7       8    5    7    0
         2     9       8    4    0    8
         3    10       8    4    5    0
 12      1     3       4    5    0    8
         2     6       4    5    0    5
         3     9       2    4    6    0
 13      1     1       8    7    9    0
         2     4       6    7    8    0
         3     8       6    7    0    7
 14      1     4       6    7    6    0
         2     8       5    6    4    0
         3     9       3    1    4    0
 15      1     2      10    6    0    5
         2     3       8    6    0    5
         3     7       7    5    7    0
 16      1     2       9    6    8    0
         2     3       9    3    0    3
         3     3       9    1    7    0
 17      1     3       7    7    0    8
         2     4       7    5    7    0
         3     9       6    1    0    3
 18      1     3       8    3   10    0
         2     7       4    1    0    4
         3     7       6    2    6    0
 19      1     2       8    7    6    0
         2     2       8    5    0    2
         3     5       7    4    0    2
 20      1     1       7   10    4    0
         2    10       4    7    2    0
         3    10       6    7    0    6
 21      1     3       7    5    0    4
         2     4       6    5    9    0
         3    10       5    3    8    0
 22      1     0       0    0    0    0
************************************************************************
RESOURCEAVAILABILITIES:
  R 1  R 2  N 1  N 2
   15   13  128  113
************************************************************************
MAXIMAL LAGS:
from  to  type  delay
    1   12   ES      0
    1    2   ES      0
    2   12   ES      0
    1    3   ES      0
    3   12   ES      0
    1    4   ES      0
    4   12   ES      0
    1    5   ES      0
    5   12   ES      0
    1    6   ES      0
    6   12   ES      0
    1    7   ES      0
    7   12   ES      0
    1    8   ES      0
    8   12   ES      0
    1    9   ES      0
    9   12   ES      0
    1   10   ES      0
   10   12   ES      0
    1   11   ES      0
   11   12   ES      0
    1   12   ES      0
    2    6   SS     10
    2    6   SE     11
    2    6   ES      6
    2    6   EE      9
    2    7   SS     -1
    2    7   SE      8
    2    7   ES    -12
    2    7   EE     -5
    2   10   SS      9
    2   10   SE     12
    2   10   ES    -10
    2   10   EE    -11
    3    5   SS    -12
    3    5   SE      0
    3    5   ES     -3
    3    5   EE      9
    3    6   SS      7
    3    6   SE     -6
    3    6   ES     -3
    3    6   EE     12
    4   18   SS     11
    4   18   SE    -12
    4   18   ES     -6
    4   18   EE     10
    4   20   SS      6
    4   20   SE     -9
    4   20   ES    -12
    4   20   EE     -4
    5   13   SS     -1
    5   13   SE     -8
    5   13   ES    -11
    5   13   EE     -6
    5   18   SS      1
    5   18   SE    -11
    5   18   ES      4
    5   18   EE      7
    6    8   SS     10
    6    8   SE     12
    6    8   ES     -3
    6    8   EE    -10
    6   16   SS    -10
    6   16   SE      5
    6   16   ES     -3
    6   16   EE      8
    7   13   SS      7
    7   13   SE     -9
    7   13   ES     -5
    7   13   EE      8
    7   14   SS     -2
    7   14   SE      7
    7   14   ES      7
    7   14   EE     -7
    7   21   SS      5
    7   21   SE     -1
    7   21   ES     -1
    7   21   EE     12
    8    9   SS     12
    8    9   SE     -5
    8    9   ES     -1
    8    9   EE      9
    8   13   SS      6
    8   13   SE     -2
    8   13   ES     -8
    8   13   EE    -11
    9   21   SS     -1
    9   21   SE      0
    9   21   ES    -10
    9   21   EE    -11
   10   11   SS    -11
   10   11   SE      1
   10   11   ES      3
   10   11   EE      6
   10   14   SS      6
   10   14   SE    -12
   10   14   ES      8
   10   14   EE    -12
   10   15   SS      0
   10   15   SE      6
   10   15   ES      1
   10   15   EE      5
   11   16   SS    -11
   11   16   SE    -10
   11   16   ES      5
   11   16   EE      0
   11   17   SS     10
   11   17   SE      2
   11   17   ES      3
   11   17   EE     -4
   11   20   SS    -11
   11   20   SE     12
   11   20   ES     10
   11   20   EE     -5
   12   14   SS      3
   12   14   SE      4
   12   14   ES     -4
   12   14   EE     10
   12   15   SS      9
   12   15   SE     -8
   12   15   ES     10
   12   15   EE     -6
   12   17   SS      9
   12   17   SE     -6
   12   17   ES      6
   12   17   EE     -3
   13   17   SS     -3
   13   17   SE      6
   13   17   ES     10
   13   17   EE     -1
   14   18   SS     -5
   14   18   SE    -12
   14   18   ES    -12
   14   18   EE      0
   15   20   SS      3
   15   20   SE      2
   20   15   SE      0
   15   20   ES      0
   15   20   EE     12
   16   19   SS     -7
   16   19   SE     -2
   16   19   ES     -2
   16   19   EE    -12
   16   21   SS     -6
   16   21   SE     -7
   16   21   ES      8
   16   21   EE     -1
   17   19   SS    -12
   17   19   SE    -10
   17   19   ES      3
   17   19   EE     -6
   18   19   SS      0
   18   19   SE     -2
   18   19   ES     -4
   18   19   EE     -8
   19   22   SS      0
   19   22   SE     -7
   19   22   ES     -3
   19   22   EE     -9
   20   22   SS      2
   20   22   SE      5
   20   22   ES     -4
   20   22   EE     -7
   21   22   SS      6
   21   22   SE    -11
   21   22   ES      8
   21   22   EE     -7
************************************************************************
